1 -1 2 0
1 -1 -3 0
1 4 2 0
1 -4 3 0
1 5 6 0
1 -5 -7 0
1 -6 8 0
1 -6 5 0
1 -6 -2 0
1 -7 -9 0
1 -7 -6 0
1 7 4 0
1 7 -10 0
1 7 11 0
1 7 12 0
1 7 -3 0
1 3 13 0
1 3 -9 0
1 3 14 0
1 3 -6 0
1 15 -13 0
1 15 -16 0
1 -15 6 0
1 -15 -17 0
1 15 2 0
1 -2 6 0
1 2 -4 0
1 2 5 0
1 -2 1 0
1 12 -18 0
1 12 -14 0
1 -12 -7 0
1 -12 19 0
1 14 20 0
1 14 -19 0
1 -11 -18 0
1 11 -8 0
1 11 -9 0
1 -11 21 0
1 11 -20 0
1 11 -22 0
1 -11 23 0
1 -11 3 0
1 -9 8 0
1 -9 24 0
1 -9 16 0
1 -9 21 0
1 9 -11 0
1 9 -23 0
1 19 -25 0
1 19 8 0
1 -19 -6 0
1 19 26 0
1 -19 11 0
1 -19 12 0
1 -8 -27 0
1 8 26 0
1 8 -19 0
1 8 12 0
1 -8 28 0
1 -20 13 0
1 20 -29 0
1 20 10 0
1 -20 11 0
1 -20 12 0
1 -20 -5 0
1 20 -28 0
1 18 30 0
1 -18 9 0
1 18 14 0
1 18 -29 0
1 18 -10 0
1 -18 12 0
1 -18 28 0
1 26 21 0
1 26 -19 0
1 -26 22 0
1 -25 8 0
1 -25 -21 0
1 -27 8 0
1 27 21 0
1 -27 19 0
1 27 -23 0
1 -31 23 0
1 23 -25 0
1 23 -9 0
1 -23 21 0
1 21 -25 0
1 -21 -9 0
1 22 -31 0
1 -22 -25 0
1 22 9 0
1 -22 24 0
1 22 26 0
1 -22 -32 0
1 -24 31 0
1 -24 25 0
1 24 -9 0
1 24 -33 0
1 -24 -34 0
1 24 -27 0
1 -24 -26 0
1 24 11 0
1 -24 -22 0
1 -24 32 0
1 -24 -28 0
1 -17 -35 0
1 17 36 0
1 -17 37 0
1 -17 -15 0
1 17 -38 0
1 -17 12 0
1 -17 2 0
1 36 38 0
1 -39 -16 0
1 39 40 0
1 -39 15 0
1 39 -38 0
1 -39 11 0
1 39 -41 0
1 -39 42 0
1 -39 -43 0
1 16 -41 0
1 -16 -9 0
1 -16 40 0
1 -16 44 0
1 16 -38 0
1 -16 42 0
1 -16 -43 0
1 -37 -41 0
1 37 30 0
1 -37 -13 0
1 37 10 0
1 37 -39 0
1 41 30 0
1 41 16 0
1 -41 36 0
1 -41 -29 0
1 -41 -10 0
1 -41 17 0
1 35 -36 0
1 -35 -38 0
1 35 -39 0
1 -35 17 0
1 -38 -16 0
1 -38 35 0
1 38 36 0
1 -10 -13 0
1 -10 40 0
1 10 -26 0
1 -10 -41 0
1 10 -43 0
1 10 -2 0
1 -10 -3 0
1 13 -18 0
1 13 37 0
1 -13 44 0
1 -13 7 0
1 13 -10 0
1 13 -42 0
1 -13 2 0
1 -13 3 0
1 29 -45 0
1 -29 40 0
1 -29 27 0
1 29 42 0
1 29 43 0
1 29 -46 0
1 30 -31 0
1 30 40 0
1 30 44 0
1 -30 -20 0
1 44 -30 0
1 44 -13 0
1 -44 16 0
1 44 33 0
1 44 -34 0
1 -44 29 0
1 44 -10 0
1 44 28 0
1 -43 -13 0
1 -43 44 0
1 43 34 0
1 43 -39 0
1 43 -28 0
1 -40 -30 0
1 -40 -13 0
1 40 16 0
1 -40 -10 0
1 40 42 0
1 -42 -30 0
1 -42 13 0
1 42 -40 0
1 42 29 0
1 -42 10 0
1 34 -8 0
1 34 -24 0
1 -34 20 0
1 34 -22 0
1 34 -46 0
1 -34 -28 0
1 28 -8 0
1 -28 34 0
1 -28 20 0
1 -28 19 0
1 33 -24 0
1 33 44 0
1 -33 -47 0
1 -33 43 0
1 33 -46 0
1 -32 24 0
1 47 -32 0
1 -45 33 0
1 45 3 0
1 45 32 0
1 48 -33 0
1 -48 -15 0
1 48 34 0
1 -48 29 0
1 48 -32 0
1 48 -46 0
1 -48 28 0
1 -46 -29 0
1 -46 2 0
1 -46 28 0
